11
2147483647 72 17 75 58 72 52 17 98 97 38 
72 2147483647 57 40 24 40 100 60 14 20 7 
17 57 2147483647 62 82 5 75 19 77 32 12 
75 40 62 2147483647 14 83 8 15 32 17 14 
58 24 82 14 2147483647 72 93 93 98 50 19 
72 40 5 83 72 2147483647 36 22 16 73 24 
52 100 75 8 93 36 2147483647 81 75 1 22 
17 60 19 15 93 22 81 2147483647 95 56 38 
98 14 77 32 98 16 75 95 2147483647 54 1 
97 20 32 17 50 73 1 56 54 2147483647 31 
38 7 12 14 19 24 22 38 1 31 2147483647 
